
#(C) 2015 by Fachinformationszentrum Karlsruhe.  All rights reserved.
data_2789-ICSD
_database_code_ICSD 2789
_audit_creation_date 1980-01-01
_audit_update_record 2012-02-01
_chemical_name_systematic 'Pentcalcium tris(phosphate(V)) chloride'
_chemical_formula_structural 'Ca5 (P O4)3 Cl'
_chemical_formula_sum 'Ca5 Cl1 O12 P3'
_chemical_name_structure_type Apatite-Cl(mcl)
_chemical_name_mineral Apatite-(CaCl)
_exptl_crystal_density_diffrn 3.18
_publ_section_title
'Monocline structure of synthetic Ca5 (P O4)3 Cl, chlorapatite'
loop_
_citation_id
_citation_journal_full
_citation_year
_citation_journal_volume
_citation_page_first
_citation_page_last
_citation_journal_id_ASTM
primary 'Acta Crystallographica B (24,1968-38,1982)' 1972 28 1840 1848 ACBCAR
loop_
_publ_author_name
'Mackie, P.E.'
'Elliott, J.C.'
'Young, R.A.'
_cell_length_a 9.628(5)
_cell_length_b 19.256(10)
_cell_length_c 6.764(5)
_cell_angle_alpha 90.
_cell_angle_beta 90.
_cell_angle_gamma 120.
_cell_volume 1086.02
_cell_formula_units_Z 4
_symmetry_space_group_name_H-M 'P 1 1 21/b'
_symmetry_Int_Tables_number 14
_refine_ls_R_factor_all 0.025
loop_
_symmetry_equiv_pos_site_id
_symmetry_equiv_pos_as_xyz
1 'x, y+1/2, -z+1/2'
2 '-x, -y, -z'
3 '-x, -y+1/2, z+1/2'
4 'x, y, z'
loop_
_atom_type_symbol
_atom_type_oxidation_number
O2- -2
Ca2+ 2
P5+ 5
Cl1- -1
loop_
_atom_site_label
_atom_site_type_symbol
_atom_site_symmetry_multiplicity
_atom_site_Wyckoff_symbol
_atom_site_fract_x
_atom_site_fract_y
_atom_site_fract_z
_atom_site_B_iso_or_equiv
_atom_site_occupancy
_atom_site_attached_hydrogens
O1 O2- 4 e 0.3436(1) 0.4960(1) 0.2563(3) . 1. 0
O2 O2- 4 e 0.4924(1) 0.3240(1) 0.7554(2) . 1. 0
O3 O2- 4 e 0.1485(1) 0.5783(1) 0.2480(3) . 1. 0
O4 O2- 4 e 0.5924(1) 0.4827(1) 0.2390(3) . 1. 0
O5 O2- 4 e 0.5342(1) 0.3138(1) 0.2447(3) . 1. 0
O6 O2- 4 e 0.1270(2) 0.5462(1) 0.7366(3) . 1. 0
O7 O2- 4 e 0.3411(2) 0.3804(1) 0.0769(3) . 1. 0
O8 O2- 4 e 0.7360(2) 0.2918(1) 0.0723(3) . 1. 0
O9 O2- 4 e 0.0826(2) 0.4204(1) 0.5774(3) . 1. 0
O10 O2- 4 e 0.3645(2) 0.3866(1) 0.4413(3) . 1. 0
O11 O2- 4 e 0.7300(2) 0.2950(1) 0.4371(3) . 1. 0
O12 O2- 4 e 0.0894(1) 0.4327(1) 0.9419(3) . 1. 0
Ca1 Ca2+ 4 e 0.3276(1) 0.5811 0.0034(1) . 1. 0
Ca2 Ca2+ 4 e 0.3387(1) 0.5856 0.4966(1) . 1. 0
Ca3 Ca2+ 4 e 0.2594 0.2523 0.2480(1) . 1. 0
Ca4 Ca2+ 4 e 0.0053 0.6229 0.7481(1) . 1. 0
Ca5 Ca2+ 4 e 0.255 0.3798 0.7513(1) . 1. 0
P1 P5+ 4 e 0.4076 0.4376 0.2533(1) . 1. 0
P2 P5+ 4 e 0.6245 0.2665 0.2522(1) . 1. 0
P3 P5+ 4 e 0.0324 0.4538 0.7517(1) . 1. 0
Cl1 Cl1- 4 e 0.0016(1) 0.2493(1) 0.4439(2) . 1. 0
loop_
_atom_site_aniso_label
_atom_site_aniso_type_symbol
_atom_site_aniso_beta_11
_atom_site_aniso_beta_22
_atom_site_aniso_beta_33
_atom_site_aniso_beta_12
_atom_site_aniso_beta_13
_atom_site_aniso_beta_23
O1 O2- 0.00533(14) 0.00106(7) 0.00404(23) 0.00184(6) -.00059(20) -.00009(13)
O2 O2- 0.00390(13) 0.00035(6) 0.00409(22) 0.00003(5) -.00008(19) -.00007(13)
O3 O2- 0.00163(11) 0.00134(6) 0.00408(19) 0.00070(5) -.00027(17) -.00005(14)
O4 O2- 0.00156(11) 0.00067(6) 0.00581(30) 0.00034(5) 0.00073(16) 0.00006(11)
O5 O2- 0.00247(12) 0.00082(7) 0.00637(25) 0.00080(5) -.00032(19) -.00018(13)
O6 O2- 0.00276(12) 0.00052(6) 0.00570(34) 0.00053(5) 0.00053(16) 0.00044(11)
O7 O2- 0.00684(21) 0.00102(8) 0.00429(39) 0.00154(8) -.00322(20) -.00095(12)
O8 O2- 0.00337(17) 0.00083(8) 0.00503(43) 0.00029(7) 0.00199(18) -.00041(13)
O9 O2- 0.00405(17) 0.00147(9) 0.00409(36) 0.00168(8) -.00130(17) -.00133(13)
O10 O2- 0.00411(16) 0.00100(8) 0.00366(30) 0.00123(7) 0.00147(16) 0.00074(12)
O11 O2- 0.00345(17) 0.00072(8) 0.00312(35) 0.00030(7) 0.00147(17) 0.00040(13)
O12 O2- 0.00269(15) 0.00110(8) 0.00344(29) 0.00088(7) 0.00024(15) 0.00104(12)
Ca1 Ca2+ 0.00263(5) 0.00070(3) 0.00194(8) 0.00061(2) 0.00000(3) -.00006(2)
Ca2 Ca2+ 0.00251(6) 0.00070(3) 0.00166(8) 0.00069(2) -.00002(3) -.00002(2)
Ca3 Ca2+ 0.00230(3) 0.00074(2) 0.00256(4) 0.00062(1) 0.00027(5) 0.00001(3)
Ca4 Ca2+ 0.00280(3) 0.00071(2) 0.00267(4) 0.00081(1) 0.00004(5) 0.00019(3)
Ca5 Ca2+ 0.00273(3) 0.00059(2) 0.00256(5) 0.00054(1) 0.00017(5) 0.00010(3)
P1 P5+ 0.00182(4) 0.00043(2) 0.00221(6) 0.00048(2) -.00010(6) -.00003(4)
P2 P5+ 0.00163(4) 0.00040(2) 0.00215(6) 0.00032(2) 0.00004(6) -.00004(4)
P3 P5+ 0.00151(4) 0.00050(2) 0.00227(6) 0.00042(2) -.00010(6) -.00006(4)
Cl1 Cl1- 0.00287(5) 0.00074(2) 0.00914(12) 0.00071(2) 0.00012(7) -.00009(6)
#End of TTdata_2789-ICSD